n_res = 5;
n_events = 12;
n_prec = 27;
source = 1;
sink = 12;
min_lvl = [-4, -4, 1, -2, -1];
max_lvl = [1, -2, 3, 2, 2];
rr = [| 0, -1, 0, 2, 2, -2, 0, -2, 1, -2, -2, 0
      | 0, -1, -1, 1, -1, -2, -1, 0, 1, 0, 0, 0
      | 0, -1, 1, 2, -1, 0, -1, 0, 2, 0, 1, 0
      | 0, 0, 0, 0, -1, 2, 1, 0, -1, 1, 0, 0
      | 0, 0, 0, 0, 0, -1, -2, 0, 2, 2, 0, 0 |];
prec = [| 1, 0, 4
        | 1, 0, 9
        | 1, 0, 5
        | 1, 0, 2
        | 1, 0, 3
        | 2, -3, 9
        | 2, 24, 10
        | 3, 9, 7
        | 3, 2, 6
        | 3, 6, 10
        | 3, -1, 8
        | 4, 17, 10
        | 4, 6, 8
        | 5, 4, 8
        | 6, -26, 9
        | 6, 7, 7
        | 6, -25, 2
        | 7, -19, 3
        | 7, -23, 2
        | 7, 26, 11
        | 8, 8, 11
        | 9, -1, 8
        | 9, 5, 6
        | 10, -18, 4
        | 10, 4, 12
        | 11, 4, 12
        | 11, -9, 8 |];
